original problem has 32674 variables (32597 bin, 41 int, 0 impl, 36 cont) and 32709 constraints
1/1 feasible solution given by solution candidate storage, new primal bound 5.848098e+03

presolving:
   (0.4s) running MILP presolver
   (3.2s) MILP presolver (2 rounds): 2 aggregations, 0 fixings, 0 bound changes
(round 1, exhaustive) 4 del vars, 3 del conss, 0 add conss, 0 chg bounds, 1 chg sides, 0 chg coeffs, 145 upgd conss, 0 impls, 0 clqs
   (3.5s) probing: 51/32597 (0.2%) - 0 fixings, 0 aggregations, 0 implications, 0 bound changes
   (3.5s) probing aborted: 50/50 successive totally useless probings
presolving (2 rounds: 2 fast, 2 medium, 2 exhaustive):
 4 deleted vars, 3 deleted constraints, 0 added constraints, 0 tightened bounds, 0 added holes, 1 changed sides, 0 changed coefficients
 72 implications, 0 cliques
presolved problem has 32670 variables (32597 bin, 37 int, 0 impl, 36 cont) and 32706 constraints
    144 constraints of type <varbound>
      1 constraints of type <knapsack>
  32561 constraints of type <linear>
Presolving Time: 3.36
transformed 1/1 original solutions to the transformed problem space

 time | node  | left  |LP iter|LP it/n|mem/heur|mdpt |vars |cons |rows |cuts |sepa|confs|strbr|  dualbound   | primalbound  |  gap   | compl. 
  137s|     1 |     0 | 26345 |     - |   236M |   0 |  32k|  32k|  32k|   0 |  0 |   0 |   0 | 8.131608e-02 | 5.848098e+03 |  Large | unknown
  137s|     1 |     2 | 26345 |     - |   236M |   0 |  32k|  32k|  32k|   0 |  1 |   0 |   0 | 8.131608e-02 | 5.848098e+03 |  Large | unknown

SCIP Status        : solving was interrupted [node limit reached]
Solving Time (sec) : 136.91
Solving Nodes      : 1
Primal Bound       : +5.84809750881316e+03 (1 solutions)
Dual Bound         : +8.13160792011207e-02
Gap                : 7191709.50 %
wrote problem to file /mnt/lscratch/users/dferrario/Adaptive-Cutsel-MILP/TransformedInstances/adult-max5features__trans__seed__1.mps
